problems/csplib-prob056/params/sonet-60-30-22-5796.param
language Essence 1.3
letting nnodes be 60
letting nrings be 30
letting capacity be 22
letting demand be 
{{1, 2},
{1, 4},
{1, 7},
{1, 8},
{1, 10},
{1, 11},
{1, 12},
{1, 13},
{1, 18},
{1, 20},
{1, 25},
{1, 30},
{1, 35},
{1, 36},
{1, 37},
{1, 38},
{1, 39},
{1, 40},
{1, 43},
{1, 48},
{1, 52},
{1, 54},
{1, 55},
{1, 56},
{1, 58},
{1, 60},
{2, 3},
{2, 4},
{2, 5},
{2, 6},
{2, 7},
{2, 8},
{2, 9},
{2, 10},
{2, 13},
{2, 14},
{2, 17},
{2, 19},
{2, 22},
{2, 24},
{2, 31},
{2, 35},
{2, 36},
{2, 37},
{2, 40},
{2, 41},
{2, 44},
{2, 46},
{2, 47},
{2, 49},
{2, 52},
{2, 53},
{2, 54},
{2, 56},
{2, 60},
{3, 6},
{3, 8},
{3, 10},
{3, 11},
{3, 13},
{3, 14},
{3, 15},
{3, 18},
{3, 19},
{3, 23},
{3, 25},
{3, 29},
{3, 31},
{3, 32},
{3, 36},
{3, 38},
{3, 39},
{3, 42},
{3, 43},
{3, 46},
{3, 47},
{3, 49},
{3, 50},
{3, 51},
{3, 55},
{3, 57},
{3, 59},
{4, 5},
{4, 9},
{4, 14},
{4, 18},
{4, 20},
{4, 22},
{4, 24},
{4, 25},
{4, 27},
{4, 28},
{4, 31},
{4, 32},
{4, 33},
{4, 34},
{4, 35},
{4, 36},
{4, 39},
{4, 42},
{4, 43},
{4, 44},
{4, 45},
{4, 46},
{4, 47},
{4, 48},
{4, 49},
{4, 53},
{4, 54},
{4, 55},
{4, 59},
{4, 60},
{5, 6},
{5, 8},
{5, 9},
{5, 13},
{5, 14},
{5, 15},
{5, 16},
{5, 17},
{5, 19},
{5, 20},
{5, 21},
{5, 22},
{5, 24},
{5, 25},
{5, 26},
{5, 30},
{5, 31},
{5, 32},
{5, 37},
{5, 38},
{5, 41},
{5, 43},
{5, 48},
{5, 50},
{5, 52},
{5, 54},
{5, 55},
{5, 56},
{5, 57},
{6, 7},
{6, 8},
{6, 13},
{6, 15},
{6, 17},
{6, 18},
{6, 19},
{6, 20},
{6, 21},
{6, 22},
{6, 25},
{6, 26},
{6, 28},
{6, 29},
{6, 30},
{6, 31},
{6, 32},
{6, 33},
{6, 36},
{6, 39},
{6, 40},
{6, 41},
{6, 42},
{6, 44},
{6, 45},
{6, 48},
{6, 52},
{6, 55},
{6, 58},
{7, 8},
{7, 9},
{7, 11},
{7, 13},
{7, 15},
{7, 18},
{7, 19},
{7, 21},
{7, 22},
{7, 24},
{7, 25},
{7, 26},
{7, 27},
{7, 29},
{7, 33},
{7, 34},
{7, 35},
{7, 37},
{7, 40},
{7, 41},
{7, 42},
{7, 48},
{7, 50},
{7, 51},
{7, 53},
{7, 56},
{8, 11},
{8, 14},
{8, 18},
{8, 19},
{8, 21},
{8, 22},
{8, 24},
{8, 25},
{8, 26},
{8, 27},
{8, 28},
{8, 29},
{8, 30},
{8, 31},
{8, 32},
{8, 34},
{8, 35},
{8, 36},
{8, 38},
{8, 39},
{8, 40},
{8, 41},
{8, 42},
{8, 43},
{8, 44},
{8, 45},
{8, 47},
{8, 48},
{8, 49},
{8, 50},
{8, 53},
{8, 54},
{8, 55},
{8, 56},
{8, 57},
{8, 58},
{9, 12},
{9, 15},
{9, 16},
{9, 18},
{9, 31},
{9, 33},
{9, 34},
{9, 35},
{9, 36},
{9, 37},
{9, 39},
{9, 41},
{9, 46},
{9, 51},
{9, 54},
{9, 56},
{9, 57},
{9, 59},
{9, 60},
{10, 13},
{10, 14},
{10, 15},
{10, 16},
{10, 18},
{10, 19},
{10, 22},
{10, 24},
{10, 27},
{10, 28},
{10, 29},
{10, 39},
{10, 40},
{10, 41},
{10, 43},
{10, 46},
{10, 50},
{10, 51},
{10, 54},
{10, 55},
{10, 56},
{10, 59},
{11, 12},
{11, 14},
{11, 16},
{11, 17},
{11, 20},
{11, 21},
{11, 23},
{11, 25},
{11, 28},
{11, 31},
{11, 32},
{11, 35},
{11, 38},
{11, 43},
{11, 45},
{11, 46},
{11, 49},
{11, 51},
{11, 52},
{11, 56},
{11, 57},
{12, 13},
{12, 15},
{12, 18},
{12, 19},
{12, 22},
{12, 23},
{12, 25},
{12, 30},
{12, 31},
{12, 32},
{12, 34},
{12, 35},
{12, 37},
{12, 43},
{12, 44},
{12, 45},
{12, 47},
{12, 49},
{12, 50},
{12, 51},
{12, 55},
{12, 57},
{12, 60},
{13, 16},
{13, 20},
{13, 23},
{13, 25},
{13, 26},
{13, 27},
{13, 30},
{13, 31},
{13, 33},
{13, 34},
{13, 35},
{13, 36},
{13, 38},
{13, 39},
{13, 41},
{13, 43},
{13, 44},
{13, 46},
{13, 50},
{13, 51},
{13, 53},
{13, 58},
{13, 60},
{14, 18},
{14, 19},
{14, 21},
{14, 22},
{14, 25},
{14, 27},
{14, 29},
{14, 33},
{14, 34},
{14, 39},
{14, 40},
{14, 41},
{14, 42},
{14, 46},
{14, 48},
{14, 49},
{14, 50},
{14, 52},
{14, 53},
{14, 54},
{14, 55},
{14, 56},
{14, 58},
{14, 59},
{14, 60},
{15, 16},
{15, 21},
{15, 23},
{15, 24},
{15, 27},
{15, 28},
{15, 29},
{15, 31},
{15, 32},
{15, 34},
{15, 37},
{15, 42},
{15, 44},
{15, 45},
{15, 46},
{15, 47},
{15, 49},
{15, 50},
{15, 53},
{15, 56},
{15, 57},
{15, 58},
{15, 59},
{16, 18},
{16, 20},
{16, 22},
{16, 23},
{16, 27},
{16, 30},
{16, 33},
{16, 34},
{16, 35},
{16, 40},
{16, 42},
{16, 45},
{16, 46},
{16, 48},
{16, 51},
{16, 54},
{16, 56},
{16, 58},
{17, 18},
{17, 19},
{17, 21},
{17, 22},
{17, 23},
{17, 25},
{17, 27},
{17, 28},
{17, 29},
{17, 32},
{17, 33},
{17, 35},
{17, 39},
{17, 40},
{17, 41},
{17, 42},
{17, 44},
{17, 45},
{17, 46},
{17, 48},
{17, 51},
{17, 52},
{17, 53},
{17, 54},
{17, 56},
{17, 57},
{17, 58},
{17, 59},
{18, 19},
{18, 25},
{18, 27},
{18, 30},
{18, 32},
{18, 35},
{18, 37},
{18, 39},
{18, 41},
{18, 42},
{18, 44},
{18, 45},
{18, 46},
{18, 51},
{18, 52},
{18, 57},
{18, 58},
{19, 23},
{19, 25},
{19, 26},
{19, 28},
{19, 32},
{19, 33},
{19, 34},
{19, 35},
{19, 37},
{19, 38},
{19, 44},
{19, 47},
{19, 50},
{19, 51},
{19, 54},
{19, 57},
{19, 60},
{20, 22},
{20, 23},
{20, 25},
{20, 27},
{20, 29},
{20, 31},
{20, 32},
{20, 37},
{20, 38},
{20, 39},
{20, 40},
{20, 41},
{20, 46},
{20, 47},
{20, 49},
{20, 51},
{20, 52},
{20, 53},
{20, 54},
{20, 59},
{20, 60},
{21, 22},
{21, 25},
{21, 27},
{21, 29},
{21, 30},
{21, 32},
{21, 34},
{21, 37},
{21, 38},
{21, 39},
{21, 40},
{21, 41},
{21, 43},
{21, 45},
{21, 46},
{21, 49},
{21, 50},
{21, 52},
{21, 53},
{21, 56},
{21, 57},
{21, 60},
{22, 24},
{22, 26},
{22, 28},
{22, 31},
{22, 32},
{22, 35},
{22, 38},
{22, 39},
{22, 41},
{22, 42},
{22, 46},
{22, 50},
{22, 51},
{22, 52},
{22, 54},
{22, 55},
{22, 58},
{23, 25},
{23, 27},
{23, 29},
{23, 32},
{23, 35},
{23, 42},
{23, 44},
{23, 45},
{23, 49},
{23, 51},
{23, 53},
{23, 59},
{23, 60},
{24, 25},
{24, 26},
{24, 27},
{24, 34},
{24, 35},
{24, 37},
{24, 39},
{24, 40},
{24, 42},
{24, 43},
{24, 44},
{24, 46},
{24, 49},
{24, 50},
{24, 52},
{24, 53},
{24, 58},
{24, 59},
{25, 27},
{25, 28},
{25, 30},
{25, 31},
{25, 32},
{25, 33},
{25, 34},
{25, 35},
{25, 39},
{25, 40},
{25, 42},
{25, 46},
{25, 47},
{25, 48},
{25, 50},
{25, 53},
{25, 56},
{25, 57},
{25, 59},
{25, 60},
{26, 28},
{26, 29},
{26, 30},
{26, 32},
{26, 33},
{26, 34},
{26, 39},
{26, 40},
{26, 44},
{26, 47},
{26, 48},
{26, 49},
{26, 51},
{26, 53},
{26, 59},
{27, 28},
{27, 35},
{27, 36},
{27, 37},
{27, 40},
{27, 41},
{27, 43},
{27, 46},
{27, 47},
{27, 50},
{27, 51},
{27, 55},
{27, 56},
{27, 58},
{27, 59},
{28, 32},
{28, 33},
{28, 37},
{28, 39},
{28, 41},
{28, 42},
{28, 45},
{28, 48},
{28, 52},
{28, 54},
{28, 59},
{29, 31},
{29, 33},
{29, 34},
{29, 35},
{29, 36},
{29, 37},
{29, 38},
{29, 39},
{29, 42},
{29, 44},
{29, 46},
{29, 48},
{29, 49},
{29, 50},
{29, 53},
{29, 54},
{29, 58},
{30, 36},
{30, 38},
{30, 42},
{30, 44},
{30, 48},
{30, 52},
{30, 53},
{30, 57},
{30, 59},
{31, 33},
{31, 34},
{31, 37},
{31, 39},
{31, 43},
{31, 44},
{31, 46},
{31, 47},
{31, 51},
{31, 54},
{31, 58},
{31, 59},
{32, 34},
{32, 36},
{32, 37},
{32, 38},
{32, 41},
{32, 43},
{32, 44},
{32, 45},
{32, 47},
{32, 48},
{32, 50},
{32, 51},
{32, 52},
{32, 53},
{32, 54},
{33, 38},
{33, 42},
{33, 43},
{33, 45},
{33, 46},
{33, 49},
{33, 52},
{33, 54},
{33, 56},
{33, 58},
{33, 59},
{34, 36},
{34, 39},
{34, 46},
{34, 47},
{34, 49},
{34, 50},
{34, 52},
{34, 54},
{34, 58},
{34, 60},
{35, 36},
{35, 37},
{35, 39},
{35, 41},
{35, 42},
{35, 43},
{35, 44},
{35, 45},
{35, 47},
{35, 49},
{35, 51},
{35, 54},
{35, 55},
{35, 56},
{35, 57},
{35, 58},
{36, 38},
{36, 40},
{36, 44},
{36, 46},
{36, 47},
{36, 50},
{36, 51},
{36, 52},
{36, 53},
{36, 54},
{36, 57},
{36, 60},
{37, 38},
{37, 39},
{37, 41},
{37, 42},
{37, 44},
{37, 45},
{37, 47},
{37, 54},
{37, 55},
{37, 56},
{37, 57},
{37, 58},
{37, 60},
{38, 39},
{38, 41},
{38, 43},
{38, 44},
{38, 47},
{38, 48},
{38, 51},
{38, 52},
{38, 54},
{38, 55},
{38, 57},
{39, 40},
{39, 41},
{39, 43},
{39, 45},
{39, 46},
{39, 47},
{39, 49},
{39, 51},
{39, 56},
{39, 57},
{40, 43},
{40, 45},
{40, 55},
{40, 58},
{41, 42},
{41, 43},
{41, 44},
{41, 45},
{41, 47},
{41, 49},
{41, 50},
{41, 51},
{41, 54},
{41, 58},
{41, 59},
{42, 43},
{42, 46},
{42, 50},
{42, 51},
{42, 56},
{42, 57},
{42, 58},
{42, 59},
{42, 60},
{43, 45},
{43, 48},
{43, 49},
{43, 50},
{43, 55},
{43, 56},
{43, 57},
{43, 59},
{43, 60},
{44, 47},
{44, 48},
{44, 51},
{44, 52},
{44, 54},
{44, 57},
{44, 58},
{44, 60},
{45, 47},
{45, 48},
{45, 51},
{45, 52},
{45, 55},
{45, 56},
{45, 58},
{45, 60},
{46, 49},
{46, 51},
{46, 53},
{47, 48},
{47, 51},
{47, 58},
{47, 59},
{48, 50},
{48, 51},
{48, 52},
{48, 53},
{48, 54},
{48, 57},
{48, 59},
{48, 60},
{49, 50},
{49, 53},
{49, 54},
{49, 56},
{49, 60},
{50, 53},
{50, 54},
{50, 55},
{50, 60},
{51, 52},
{51, 55},
{51, 56},
{51, 58},
{51, 59},
{51, 60},
{52, 56},
{52, 57},
{52, 59},
{52, 60},
{53, 54},
{53, 56},
{53, 58},
{53, 59},
{54, 56},
{54, 59},
{54, 60},
{55, 56},
{55, 57},
{55, 59},
{55, 60},
{56, 57},
{56, 60},
{57, 58},
{57, 60}}
