problems/csplib-prob056/sonet-models/noch/O2/minion/sonet-60-30-22-5796.eprime-param
language ESSENCE' 1.0

letting nnodes be 60
letting nrings be 30
letting capacity be 22
letting demand_ExplicitR3_Explicit be
        [[1, 2; int(1..2)], [1, 4; int(1..2)], [1, 7; int(1..2)], [1, 8; int(1..2)], [1, 10; int(1..2)],
         [1, 11; int(1..2)], [1, 12; int(1..2)], [1, 13; int(1..2)], [1, 18; int(1..2)], [1, 20; int(1..2)],
         [1, 25; int(1..2)], [1, 30; int(1..2)], [1, 35; int(1..2)], [1, 36; int(1..2)], [1, 37; int(1..2)],
         [1, 38; int(1..2)], [1, 39; int(1..2)], [1, 40; int(1..2)], [1, 43; int(1..2)], [1, 48; int(1..2)],
         [1, 52; int(1..2)], [1, 54; int(1..2)], [1, 55; int(1..2)], [1, 56; int(1..2)], [1, 58; int(1..2)],
         [1, 60; int(1..2)], [2, 3; int(1..2)], [2, 4; int(1..2)], [2, 5; int(1..2)], [2, 6; int(1..2)],
         [2, 7; int(1..2)], [2, 8; int(1..2)], [2, 9; int(1..2)], [2, 10; int(1..2)], [2, 13; int(1..2)],
         [2, 14; int(1..2)], [2, 17; int(1..2)], [2, 19; int(1..2)], [2, 22; int(1..2)], [2, 24; int(1..2)],
         [2, 31; int(1..2)], [2, 35; int(1..2)], [2, 36; int(1..2)], [2, 37; int(1..2)], [2, 40; int(1..2)],
         [2, 41; int(1..2)], [2, 44; int(1..2)], [2, 46; int(1..2)], [2, 47; int(1..2)], [2, 49; int(1..2)],
         [2, 52; int(1..2)], [2, 53; int(1..2)], [2, 54; int(1..2)], [2, 56; int(1..2)], [2, 60; int(1..2)],
         [3, 6; int(1..2)], [3, 8; int(1..2)], [3, 10; int(1..2)], [3, 11; int(1..2)], [3, 13; int(1..2)],
         [3, 14; int(1..2)], [3, 15; int(1..2)], [3, 18; int(1..2)], [3, 19; int(1..2)], [3, 23; int(1..2)],
         [3, 25; int(1..2)], [3, 29; int(1..2)], [3, 31; int(1..2)], [3, 32; int(1..2)], [3, 36; int(1..2)],
         [3, 38; int(1..2)], [3, 39; int(1..2)], [3, 42; int(1..2)], [3, 43; int(1..2)], [3, 46; int(1..2)],
         [3, 47; int(1..2)], [3, 49; int(1..2)], [3, 50; int(1..2)], [3, 51; int(1..2)], [3, 55; int(1..2)],
         [3, 57; int(1..2)], [3, 59; int(1..2)], [4, 5; int(1..2)], [4, 9; int(1..2)], [4, 14; int(1..2)],
         [4, 18; int(1..2)], [4, 20; int(1..2)], [4, 22; int(1..2)], [4, 24; int(1..2)], [4, 25; int(1..2)],
         [4, 27; int(1..2)], [4, 28; int(1..2)], [4, 31; int(1..2)], [4, 32; int(1..2)], [4, 33; int(1..2)],
         [4, 34; int(1..2)], [4, 35; int(1..2)], [4, 36; int(1..2)], [4, 39; int(1..2)], [4, 42; int(1..2)],
         [4, 43; int(1..2)], [4, 44; int(1..2)], [4, 45; int(1..2)], [4, 46; int(1..2)], [4, 47; int(1..2)],
         [4, 48; int(1..2)], [4, 49; int(1..2)], [4, 53; int(1..2)], [4, 54; int(1..2)], [4, 55; int(1..2)],
         [4, 59; int(1..2)], [4, 60; int(1..2)], [5, 6; int(1..2)], [5, 8; int(1..2)], [5, 9; int(1..2)],
         [5, 13; int(1..2)], [5, 14; int(1..2)], [5, 15; int(1..2)], [5, 16; int(1..2)], [5, 17; int(1..2)],
         [5, 19; int(1..2)], [5, 20; int(1..2)], [5, 21; int(1..2)], [5, 22; int(1..2)], [5, 24; int(1..2)],
         [5, 25; int(1..2)], [5, 26; int(1..2)], [5, 30; int(1..2)], [5, 31; int(1..2)], [5, 32; int(1..2)],
         [5, 37; int(1..2)], [5, 38; int(1..2)], [5, 41; int(1..2)], [5, 43; int(1..2)], [5, 48; int(1..2)],
         [5, 50; int(1..2)], [5, 52; int(1..2)], [5, 54; int(1..2)], [5, 55; int(1..2)], [5, 56; int(1..2)],
         [5, 57; int(1..2)], [6, 7; int(1..2)], [6, 8; int(1..2)], [6, 13; int(1..2)], [6, 15; int(1..2)],
         [6, 17; int(1..2)], [6, 18; int(1..2)], [6, 19; int(1..2)], [6, 20; int(1..2)], [6, 21; int(1..2)],
         [6, 22; int(1..2)], [6, 25; int(1..2)], [6, 26; int(1..2)], [6, 28; int(1..2)], [6, 29; int(1..2)],
         [6, 30; int(1..2)], [6, 31; int(1..2)], [6, 32; int(1..2)], [6, 33; int(1..2)], [6, 36; int(1..2)],
         [6, 39; int(1..2)], [6, 40; int(1..2)], [6, 41; int(1..2)], [6, 42; int(1..2)], [6, 44; int(1..2)],
         [6, 45; int(1..2)], [6, 48; int(1..2)], [6, 52; int(1..2)], [6, 55; int(1..2)], [6, 58; int(1..2)],
         [7, 8; int(1..2)], [7, 9; int(1..2)], [7, 11; int(1..2)], [7, 13; int(1..2)], [7, 15; int(1..2)],
         [7, 18; int(1..2)], [7, 19; int(1..2)], [7, 21; int(1..2)], [7, 22; int(1..2)], [7, 24; int(1..2)],
         [7, 25; int(1..2)], [7, 26; int(1..2)], [7, 27; int(1..2)], [7, 29; int(1..2)], [7, 33; int(1..2)],
         [7, 34; int(1..2)], [7, 35; int(1..2)], [7, 37; int(1..2)], [7, 40; int(1..2)], [7, 41; int(1..2)],
         [7, 42; int(1..2)], [7, 48; int(1..2)], [7, 50; int(1..2)], [7, 51; int(1..2)], [7, 53; int(1..2)],
         [7, 56; int(1..2)], [8, 11; int(1..2)], [8, 14; int(1..2)], [8, 18; int(1..2)], [8, 19; int(1..2)],
         [8, 21; int(1..2)], [8, 22; int(1..2)], [8, 24; int(1..2)], [8, 25; int(1..2)], [8, 26; int(1..2)],
         [8, 27; int(1..2)], [8, 28; int(1..2)], [8, 29; int(1..2)], [8, 30; int(1..2)], [8, 31; int(1..2)],
         [8, 32; int(1..2)], [8, 34; int(1..2)], [8, 35; int(1..2)], [8, 36; int(1..2)], [8, 38; int(1..2)],
         [8, 39; int(1..2)], [8, 40; int(1..2)], [8, 41; int(1..2)], [8, 42; int(1..2)], [8, 43; int(1..2)],
         [8, 44; int(1..2)], [8, 45; int(1..2)], [8, 47; int(1..2)], [8, 48; int(1..2)], [8, 49; int(1..2)],
         [8, 50; int(1..2)], [8, 53; int(1..2)], [8, 54; int(1..2)], [8, 55; int(1..2)], [8, 56; int(1..2)],
         [8, 57; int(1..2)], [8, 58; int(1..2)], [9, 12; int(1..2)], [9, 15; int(1..2)], [9, 16; int(1..2)],
         [9, 18; int(1..2)], [9, 31; int(1..2)], [9, 33; int(1..2)], [9, 34; int(1..2)], [9, 35; int(1..2)],
         [9, 36; int(1..2)], [9, 37; int(1..2)], [9, 39; int(1..2)], [9, 41; int(1..2)], [9, 46; int(1..2)],
         [9, 51; int(1..2)], [9, 54; int(1..2)], [9, 56; int(1..2)], [9, 57; int(1..2)], [9, 59; int(1..2)],
         [9, 60; int(1..2)], [10, 13; int(1..2)], [10, 14; int(1..2)], [10, 15; int(1..2)], [10, 16; int(1..2)],
         [10, 18; int(1..2)], [10, 19; int(1..2)], [10, 22; int(1..2)], [10, 24; int(1..2)], [10, 27; int(1..2)],
         [10, 28; int(1..2)], [10, 29; int(1..2)], [10, 39; int(1..2)], [10, 40; int(1..2)], [10, 41; int(1..2)],
         [10, 43; int(1..2)], [10, 46; int(1..2)], [10, 50; int(1..2)], [10, 51; int(1..2)], [10, 54; int(1..2)],
         [10, 55; int(1..2)], [10, 56; int(1..2)], [10, 59; int(1..2)], [11, 12; int(1..2)], [11, 14; int(1..2)],
         [11, 16; int(1..2)], [11, 17; int(1..2)], [11, 20; int(1..2)], [11, 21; int(1..2)], [11, 23; int(1..2)],
         [11, 25; int(1..2)], [11, 28; int(1..2)], [11, 31; int(1..2)], [11, 32; int(1..2)], [11, 35; int(1..2)],
         [11, 38; int(1..2)], [11, 43; int(1..2)], [11, 45; int(1..2)], [11, 46; int(1..2)], [11, 49; int(1..2)],
         [11, 51; int(1..2)], [11, 52; int(1..2)], [11, 56; int(1..2)], [11, 57; int(1..2)], [12, 13; int(1..2)],
         [12, 15; int(1..2)], [12, 18; int(1..2)], [12, 19; int(1..2)], [12, 22; int(1..2)], [12, 23; int(1..2)],
         [12, 25; int(1..2)], [12, 30; int(1..2)], [12, 31; int(1..2)], [12, 32; int(1..2)], [12, 34; int(1..2)],
         [12, 35; int(1..2)], [12, 37; int(1..2)], [12, 43; int(1..2)], [12, 44; int(1..2)], [12, 45; int(1..2)],
         [12, 47; int(1..2)], [12, 49; int(1..2)], [12, 50; int(1..2)], [12, 51; int(1..2)], [12, 55; int(1..2)],
         [12, 57; int(1..2)], [12, 60; int(1..2)], [13, 16; int(1..2)], [13, 20; int(1..2)], [13, 23; int(1..2)],
         [13, 25; int(1..2)], [13, 26; int(1..2)], [13, 27; int(1..2)], [13, 30; int(1..2)], [13, 31; int(1..2)],
         [13, 33; int(1..2)], [13, 34; int(1..2)], [13, 35; int(1..2)], [13, 36; int(1..2)], [13, 38; int(1..2)],
         [13, 39; int(1..2)], [13, 41; int(1..2)], [13, 43; int(1..2)], [13, 44; int(1..2)], [13, 46; int(1..2)],
         [13, 50; int(1..2)], [13, 51; int(1..2)], [13, 53; int(1..2)], [13, 58; int(1..2)], [13, 60; int(1..2)],
         [14, 18; int(1..2)], [14, 19; int(1..2)], [14, 21; int(1..2)], [14, 22; int(1..2)], [14, 25; int(1..2)],
         [14, 27; int(1..2)], [14, 29; int(1..2)], [14, 33; int(1..2)], [14, 34; int(1..2)], [14, 39; int(1..2)],
         [14, 40; int(1..2)], [14, 41; int(1..2)], [14, 42; int(1..2)], [14, 46; int(1..2)], [14, 48; int(1..2)],
         [14, 49; int(1..2)], [14, 50; int(1..2)], [14, 52; int(1..2)], [14, 53; int(1..2)], [14, 54; int(1..2)],
         [14, 55; int(1..2)], [14, 56; int(1..2)], [14, 58; int(1..2)], [14, 59; int(1..2)], [14, 60; int(1..2)],
         [15, 16; int(1..2)], [15, 21; int(1..2)], [15, 23; int(1..2)], [15, 24; int(1..2)], [15, 27; int(1..2)],
         [15, 28; int(1..2)], [15, 29; int(1..2)], [15, 31; int(1..2)], [15, 32; int(1..2)], [15, 34; int(1..2)],
         [15, 37; int(1..2)], [15, 42; int(1..2)], [15, 44; int(1..2)], [15, 45; int(1..2)], [15, 46; int(1..2)],
         [15, 47; int(1..2)], [15, 49; int(1..2)], [15, 50; int(1..2)], [15, 53; int(1..2)], [15, 56; int(1..2)],
         [15, 57; int(1..2)], [15, 58; int(1..2)], [15, 59; int(1..2)], [16, 18; int(1..2)], [16, 20; int(1..2)],
         [16, 22; int(1..2)], [16, 23; int(1..2)], [16, 27; int(1..2)], [16, 30; int(1..2)], [16, 33; int(1..2)],
         [16, 34; int(1..2)], [16, 35; int(1..2)], [16, 40; int(1..2)], [16, 42; int(1..2)], [16, 45; int(1..2)],
         [16, 46; int(1..2)], [16, 48; int(1..2)], [16, 51; int(1..2)], [16, 54; int(1..2)], [16, 56; int(1..2)],
         [16, 58; int(1..2)], [17, 18; int(1..2)], [17, 19; int(1..2)], [17, 21; int(1..2)], [17, 22; int(1..2)],
         [17, 23; int(1..2)], [17, 25; int(1..2)], [17, 27; int(1..2)], [17, 28; int(1..2)], [17, 29; int(1..2)],
         [17, 32; int(1..2)], [17, 33; int(1..2)], [17, 35; int(1..2)], [17, 39; int(1..2)], [17, 40; int(1..2)],
         [17, 41; int(1..2)], [17, 42; int(1..2)], [17, 44; int(1..2)], [17, 45; int(1..2)], [17, 46; int(1..2)],
         [17, 48; int(1..2)], [17, 51; int(1..2)], [17, 52; int(1..2)], [17, 53; int(1..2)], [17, 54; int(1..2)],
         [17, 56; int(1..2)], [17, 57; int(1..2)], [17, 58; int(1..2)], [17, 59; int(1..2)], [18, 19; int(1..2)],
         [18, 25; int(1..2)], [18, 27; int(1..2)], [18, 30; int(1..2)], [18, 32; int(1..2)], [18, 35; int(1..2)],
         [18, 37; int(1..2)], [18, 39; int(1..2)], [18, 41; int(1..2)], [18, 42; int(1..2)], [18, 44; int(1..2)],
         [18, 45; int(1..2)], [18, 46; int(1..2)], [18, 51; int(1..2)], [18, 52; int(1..2)], [18, 57; int(1..2)],
         [18, 58; int(1..2)], [19, 23; int(1..2)], [19, 25; int(1..2)], [19, 26; int(1..2)], [19, 28; int(1..2)],
         [19, 32; int(1..2)], [19, 33; int(1..2)], [19, 34; int(1..2)], [19, 35; int(1..2)], [19, 37; int(1..2)],
         [19, 38; int(1..2)], [19, 44; int(1..2)], [19, 47; int(1..2)], [19, 50; int(1..2)], [19, 51; int(1..2)],
         [19, 54; int(1..2)], [19, 57; int(1..2)], [19, 60; int(1..2)], [20, 22; int(1..2)], [20, 23; int(1..2)],
         [20, 25; int(1..2)], [20, 27; int(1..2)], [20, 29; int(1..2)], [20, 31; int(1..2)], [20, 32; int(1..2)],
         [20, 37; int(1..2)], [20, 38; int(1..2)], [20, 39; int(1..2)], [20, 40; int(1..2)], [20, 41; int(1..2)],
         [20, 46; int(1..2)], [20, 47; int(1..2)], [20, 49; int(1..2)], [20, 51; int(1..2)], [20, 52; int(1..2)],
         [20, 53; int(1..2)], [20, 54; int(1..2)], [20, 59; int(1..2)], [20, 60; int(1..2)], [21, 22; int(1..2)],
         [21, 25; int(1..2)], [21, 27; int(1..2)], [21, 29; int(1..2)], [21, 30; int(1..2)], [21, 32; int(1..2)],
         [21, 34; int(1..2)], [21, 37; int(1..2)], [21, 38; int(1..2)], [21, 39; int(1..2)], [21, 40; int(1..2)],
         [21, 41; int(1..2)], [21, 43; int(1..2)], [21, 45; int(1..2)], [21, 46; int(1..2)], [21, 49; int(1..2)],
         [21, 50; int(1..2)], [21, 52; int(1..2)], [21, 53; int(1..2)], [21, 56; int(1..2)], [21, 57; int(1..2)],
         [21, 60; int(1..2)], [22, 24; int(1..2)], [22, 26; int(1..2)], [22, 28; int(1..2)], [22, 31; int(1..2)],
         [22, 32; int(1..2)], [22, 35; int(1..2)], [22, 38; int(1..2)], [22, 39; int(1..2)], [22, 41; int(1..2)],
         [22, 42; int(1..2)], [22, 46; int(1..2)], [22, 50; int(1..2)], [22, 51; int(1..2)], [22, 52; int(1..2)],
         [22, 54; int(1..2)], [22, 55; int(1..2)], [22, 58; int(1..2)], [23, 25; int(1..2)], [23, 27; int(1..2)],
         [23, 29; int(1..2)], [23, 32; int(1..2)], [23, 35; int(1..2)], [23, 42; int(1..2)], [23, 44; int(1..2)],
         [23, 45; int(1..2)], [23, 49; int(1..2)], [23, 51; int(1..2)], [23, 53; int(1..2)], [23, 59; int(1..2)],
         [23, 60; int(1..2)], [24, 25; int(1..2)], [24, 26; int(1..2)], [24, 27; int(1..2)], [24, 34; int(1..2)],
         [24, 35; int(1..2)], [24, 37; int(1..2)], [24, 39; int(1..2)], [24, 40; int(1..2)], [24, 42; int(1..2)],
         [24, 43; int(1..2)], [24, 44; int(1..2)], [24, 46; int(1..2)], [24, 49; int(1..2)], [24, 50; int(1..2)],
         [24, 52; int(1..2)], [24, 53; int(1..2)], [24, 58; int(1..2)], [24, 59; int(1..2)], [25, 27; int(1..2)],
         [25, 28; int(1..2)], [25, 30; int(1..2)], [25, 31; int(1..2)], [25, 32; int(1..2)], [25, 33; int(1..2)],
         [25, 34; int(1..2)], [25, 35; int(1..2)], [25, 39; int(1..2)], [25, 40; int(1..2)], [25, 42; int(1..2)],
         [25, 46; int(1..2)], [25, 47; int(1..2)], [25, 48; int(1..2)], [25, 50; int(1..2)], [25, 53; int(1..2)],
         [25, 56; int(1..2)], [25, 57; int(1..2)], [25, 59; int(1..2)], [25, 60; int(1..2)], [26, 28; int(1..2)],
         [26, 29; int(1..2)], [26, 30; int(1..2)], [26, 32; int(1..2)], [26, 33; int(1..2)], [26, 34; int(1..2)],
         [26, 39; int(1..2)], [26, 40; int(1..2)], [26, 44; int(1..2)], [26, 47; int(1..2)], [26, 48; int(1..2)],
         [26, 49; int(1..2)], [26, 51; int(1..2)], [26, 53; int(1..2)], [26, 59; int(1..2)], [27, 28; int(1..2)],
         [27, 35; int(1..2)], [27, 36; int(1..2)], [27, 37; int(1..2)], [27, 40; int(1..2)], [27, 41; int(1..2)],
         [27, 43; int(1..2)], [27, 46; int(1..2)], [27, 47; int(1..2)], [27, 50; int(1..2)], [27, 51; int(1..2)],
         [27, 55; int(1..2)], [27, 56; int(1..2)], [27, 58; int(1..2)], [27, 59; int(1..2)], [28, 32; int(1..2)],
         [28, 33; int(1..2)], [28, 37; int(1..2)], [28, 39; int(1..2)], [28, 41; int(1..2)], [28, 42; int(1..2)],
         [28, 45; int(1..2)], [28, 48; int(1..2)], [28, 52; int(1..2)], [28, 54; int(1..2)], [28, 59; int(1..2)],
         [29, 31; int(1..2)], [29, 33; int(1..2)], [29, 34; int(1..2)], [29, 35; int(1..2)], [29, 36; int(1..2)],
         [29, 37; int(1..2)], [29, 38; int(1..2)], [29, 39; int(1..2)], [29, 42; int(1..2)], [29, 44; int(1..2)],
         [29, 46; int(1..2)], [29, 48; int(1..2)], [29, 49; int(1..2)], [29, 50; int(1..2)], [29, 53; int(1..2)],
         [29, 54; int(1..2)], [29, 58; int(1..2)], [30, 36; int(1..2)], [30, 38; int(1..2)], [30, 42; int(1..2)],
         [30, 44; int(1..2)], [30, 48; int(1..2)], [30, 52; int(1..2)], [30, 53; int(1..2)], [30, 57; int(1..2)],
         [30, 59; int(1..2)], [31, 33; int(1..2)], [31, 34; int(1..2)], [31, 37; int(1..2)], [31, 39; int(1..2)],
         [31, 43; int(1..2)], [31, 44; int(1..2)], [31, 46; int(1..2)], [31, 47; int(1..2)], [31, 51; int(1..2)],
         [31, 54; int(1..2)], [31, 58; int(1..2)], [31, 59; int(1..2)], [32, 34; int(1..2)], [32, 36; int(1..2)],
         [32, 37; int(1..2)], [32, 38; int(1..2)], [32, 41; int(1..2)], [32, 43; int(1..2)], [32, 44; int(1..2)],
         [32, 45; int(1..2)], [32, 47; int(1..2)], [32, 48; int(1..2)], [32, 50; int(1..2)], [32, 51; int(1..2)],
         [32, 52; int(1..2)], [32, 53; int(1..2)], [32, 54; int(1..2)], [33, 38; int(1..2)], [33, 42; int(1..2)],
         [33, 43; int(1..2)], [33, 45; int(1..2)], [33, 46; int(1..2)], [33, 49; int(1..2)], [33, 52; int(1..2)],
         [33, 54; int(1..2)], [33, 56; int(1..2)], [33, 58; int(1..2)], [33, 59; int(1..2)], [34, 36; int(1..2)],
         [34, 39; int(1..2)], [34, 46; int(1..2)], [34, 47; int(1..2)], [34, 49; int(1..2)], [34, 50; int(1..2)],
         [34, 52; int(1..2)], [34, 54; int(1..2)], [34, 58; int(1..2)], [34, 60; int(1..2)], [35, 36; int(1..2)],
         [35, 37; int(1..2)], [35, 39; int(1..2)], [35, 41; int(1..2)], [35, 42; int(1..2)], [35, 43; int(1..2)],
         [35, 44; int(1..2)], [35, 45; int(1..2)], [35, 47; int(1..2)], [35, 49; int(1..2)], [35, 51; int(1..2)],
         [35, 54; int(1..2)], [35, 55; int(1..2)], [35, 56; int(1..2)], [35, 57; int(1..2)], [35, 58; int(1..2)],
         [36, 38; int(1..2)], [36, 40; int(1..2)], [36, 44; int(1..2)], [36, 46; int(1..2)], [36, 47; int(1..2)],
         [36, 50; int(1..2)], [36, 51; int(1..2)], [36, 52; int(1..2)], [36, 53; int(1..2)], [36, 54; int(1..2)],
         [36, 57; int(1..2)], [36, 60; int(1..2)], [37, 38; int(1..2)], [37, 39; int(1..2)], [37, 41; int(1..2)],
         [37, 42; int(1..2)], [37, 44; int(1..2)], [37, 45; int(1..2)], [37, 47; int(1..2)], [37, 54; int(1..2)],
         [37, 55; int(1..2)], [37, 56; int(1..2)], [37, 57; int(1..2)], [37, 58; int(1..2)], [37, 60; int(1..2)],
         [38, 39; int(1..2)], [38, 41; int(1..2)], [38, 43; int(1..2)], [38, 44; int(1..2)], [38, 47; int(1..2)],
         [38, 48; int(1..2)], [38, 51; int(1..2)], [38, 52; int(1..2)], [38, 54; int(1..2)], [38, 55; int(1..2)],
         [38, 57; int(1..2)], [39, 40; int(1..2)], [39, 41; int(1..2)], [39, 43; int(1..2)], [39, 45; int(1..2)],
         [39, 46; int(1..2)], [39, 47; int(1..2)], [39, 49; int(1..2)], [39, 51; int(1..2)], [39, 56; int(1..2)],
         [39, 57; int(1..2)], [40, 43; int(1..2)], [40, 45; int(1..2)], [40, 55; int(1..2)], [40, 58; int(1..2)],
         [41, 42; int(1..2)], [41, 43; int(1..2)], [41, 44; int(1..2)], [41, 45; int(1..2)], [41, 47; int(1..2)],
         [41, 49; int(1..2)], [41, 50; int(1..2)], [41, 51; int(1..2)], [41, 54; int(1..2)], [41, 58; int(1..2)],
         [41, 59; int(1..2)], [42, 43; int(1..2)], [42, 46; int(1..2)], [42, 50; int(1..2)], [42, 51; int(1..2)],
         [42, 56; int(1..2)], [42, 57; int(1..2)], [42, 58; int(1..2)], [42, 59; int(1..2)], [42, 60; int(1..2)],
         [43, 45; int(1..2)], [43, 48; int(1..2)], [43, 49; int(1..2)], [43, 50; int(1..2)], [43, 55; int(1..2)],
         [43, 56; int(1..2)], [43, 57; int(1..2)], [43, 59; int(1..2)], [43, 60; int(1..2)], [44, 47; int(1..2)],
         [44, 48; int(1..2)], [44, 51; int(1..2)], [44, 52; int(1..2)], [44, 54; int(1..2)], [44, 57; int(1..2)],
         [44, 58; int(1..2)], [44, 60; int(1..2)], [45, 47; int(1..2)], [45, 48; int(1..2)], [45, 51; int(1..2)],
         [45, 52; int(1..2)], [45, 55; int(1..2)], [45, 56; int(1..2)], [45, 58; int(1..2)], [45, 60; int(1..2)],
         [46, 49; int(1..2)], [46, 51; int(1..2)], [46, 53; int(1..2)], [47, 48; int(1..2)], [47, 51; int(1..2)],
         [47, 58; int(1..2)], [47, 59; int(1..2)], [48, 50; int(1..2)], [48, 51; int(1..2)], [48, 52; int(1..2)],
         [48, 53; int(1..2)], [48, 54; int(1..2)], [48, 57; int(1..2)], [48, 59; int(1..2)], [48, 60; int(1..2)],
         [49, 50; int(1..2)], [49, 53; int(1..2)], [49, 54; int(1..2)], [49, 56; int(1..2)], [49, 60; int(1..2)],
         [50, 53; int(1..2)], [50, 54; int(1..2)], [50, 55; int(1..2)], [50, 60; int(1..2)], [51, 52; int(1..2)],
         [51, 55; int(1..2)], [51, 56; int(1..2)], [51, 58; int(1..2)], [51, 59; int(1..2)], [51, 60; int(1..2)],
         [52, 56; int(1..2)], [52, 57; int(1..2)], [52, 59; int(1..2)], [52, 60; int(1..2)], [53, 54; int(1..2)],
         [53, 56; int(1..2)], [53, 58; int(1..2)], [53, 59; int(1..2)], [54, 56; int(1..2)], [54, 59; int(1..2)],
         [54, 60; int(1..2)], [55, 56; int(1..2)], [55, 57; int(1..2)], [55, 59; int(1..2)], [55, 60; int(1..2)],
         [56, 57; int(1..2)], [56, 60; int(1..2)], [57, 58; int(1..2)], [57, 60; int(1..2)];
             int(1..854)]
$ Visualisation for demand_ExplicitR3_Explicit
$  1  2
$  1  4
$  1  7
$  1  8
$  1 10
$  1 11
$  1 12
$  1 13
$  1 18
$  1 20
$  1 25
$  1 30
$  1 35
$  1 36
$  1 37
$  1 38
$  1 39
$  1 40
$  1 43
$  1 48
$  1 52
$  1 54
$  1 55
$  1 56
$  1 58
$  1 60
$  2  3
$  2  4
$  2  5
$  2  6
$  2  7
$  2  8
$  2  9
$  2 10
$  2 13
$  2 14
$  2 17
$  2 19
$  2 22
$  2 24
$  2 31
$  2 35
$  2 36
$  2 37
$  2 40
$  2 41
$  2 44
$  2 46
$  2 47
$  2 49
$  2 52
$  2 53
$  2 54
$  2 56
$  2 60
$  3  6
$  3  8
$  3 10
$  3 11
$  3 13
$  3 14
$  3 15
$  3 18
$  3 19
$  3 23
$  3 25
$  3 29
$  3 31
$  3 32
$  3 36
$  3 38
$  3 39
$  3 42
$  3 43
$  3 46
$  3 47
$  3 49
$  3 50
$  3 51
$  3 55
$  3 57
$  3 59
$  4  5
$  4  9
$  4 14
$  4 18
$  4 20
$  4 22
$  4 24
$  4 25
$  4 27
$  4 28
$  4 31
$  4 32
$  4 33
$  4 34
$  4 35
$  4 36
$  4 39
$  4 42
$  4 43
$  4 44
$  4 45
$  4 46
$  4 47
$  4 48
$  4 49
$  4 53
$  4 54
$  4 55
$  4 59
$  4 60
$  5  6
$  5  8
$  5  9
$  5 13
$  5 14
$  5 15
$  5 16
$  5 17
$  5 19
$  5 20
$  5 21
$  5 22
$  5 24
$  5 25
$  5 26
$  5 30
$  5 31
$  5 32
$  5 37
$  5 38
$  5 41
$  5 43
$  5 48
$  5 50
$  5 52
$  5 54
$  5 55
$  5 56
$  5 57
$  6  7
$  6  8
$  6 13
$  6 15
$  6 17
$  6 18
$  6 19
$  6 20
$  6 21
$  6 22
$  6 25
$  6 26
$  6 28
$  6 29
$  6 30
$  6 31
$  6 32
$  6 33
$  6 36
$  6 39
$  6 40
$  6 41
$  6 42
$  6 44
$  6 45
$  6 48
$  6 52
$  6 55
$  6 58
$  7  8
$  7  9
$  7 11
$  7 13
$  7 15
$  7 18
$  7 19
$  7 21
$  7 22
$  7 24
$  7 25
$  7 26
$  7 27
$  7 29
$  7 33
$  7 34
$  7 35
$  7 37
$  7 40
$  7 41
$  7 42
$  7 48
$  7 50
$  7 51
$  7 53
$  7 56
$  8 11
$  8 14
$  8 18
$  8 19
$  8 21
$  8 22
$  8 24
$  8 25
$  8 26
$  8 27
$  8 28
$  8 29
$  8 30
$  8 31
$  8 32
$  8 34
$  8 35
$  8 36
$  8 38
$  8 39
$  8 40
$  8 41
$  8 42
$  8 43
$  8 44
$  8 45
$  8 47
$  8 48
$  8 49
$  8 50
$  8 53
$  8 54
$  8 55
$  8 56
$  8 57
$  8 58
$  9 12
$  9 15
$  9 16
$  9 18
$  9 31
$  9 33
$  9 34
$  9 35
$  9 36
$  9 37
$  9 39
$  9 41
$  9 46
$  9 51
$  9 54
$  9 56
$  9 57
$  9 59
$  9 60
$ 10 13
$ 10 14
$ 10 15
$ 10 16
$ 10 18
$ 10 19
$ 10 22
$ 10 24
$ 10 27
$ 10 28
$ 10 29
$ 10 39
$ 10 40
$ 10 41
$ 10 43
$ 10 46
$ 10 50
$ 10 51
$ 10 54
$ 10 55
$ 10 56
$ 10 59
$ 11 12
$ 11 14
$ 11 16
$ 11 17
$ 11 20
$ 11 21
$ 11 23
$ 11 25
$ 11 28
$ 11 31
$ 11 32
$ 11 35
$ 11 38
$ 11 43
$ 11 45
$ 11 46
$ 11 49
$ 11 51
$ 11 52
$ 11 56
$ 11 57
$ 12 13
$ 12 15
$ 12 18
$ 12 19
$ 12 22
$ 12 23
$ 12 25
$ 12 30
$ 12 31
$ 12 32
$ 12 34
$ 12 35
$ 12 37
$ 12 43
$ 12 44
$ 12 45
$ 12 47
$ 12 49
$ 12 50
$ 12 51
$ 12 55
$ 12 57
$ 12 60
$ 13 16
$ 13 20
$ 13 23
$ 13 25
$ 13 26
$ 13 27
$ 13 30
$ 13 31
$ 13 33
$ 13 34
$ 13 35
$ 13 36
$ 13 38
$ 13 39
$ 13 41
$ 13 43
$ 13 44
$ 13 46
$ 13 50
$ 13 51
$ 13 53
$ 13 58
$ 13 60
$ 14 18
$ 14 19
$ 14 21
$ 14 22
$ 14 25
$ 14 27
$ 14 29
$ 14 33
$ 14 34
$ 14 39
$ 14 40
$ 14 41
$ 14 42
$ 14 46
$ 14 48
$ 14 49
$ 14 50
$ 14 52
$ 14 53
$ 14 54
$ 14 55
$ 14 56
$ 14 58
$ 14 59
$ 14 60
$ 15 16
$ 15 21
$ 15 23
$ 15 24
$ 15 27
$ 15 28
$ 15 29
$ 15 31
$ 15 32
$ 15 34
$ 15 37
$ 15 42
$ 15 44
$ 15 45
$ 15 46
$ 15 47
$ 15 49
$ 15 50
$ 15 53
$ 15 56
$ 15 57
$ 15 58
$ 15 59
$ 16 18
$ 16 20
$ 16 22
$ 16 23
$ 16 27
$ 16 30
$ 16 33
$ 16 34
$ 16 35
$ 16 40
$ 16 42
$ 16 45
$ 16 46
$ 16 48
$ 16 51
$ 16 54
$ 16 56
$ 16 58
$ 17 18
$ 17 19
$ 17 21
$ 17 22
$ 17 23
$ 17 25
$ 17 27
$ 17 28
$ 17 29
$ 17 32
$ 17 33
$ 17 35
$ 17 39
$ 17 40
$ 17 41
$ 17 42
$ 17 44
$ 17 45
$ 17 46
$ 17 48
$ 17 51
$ 17 52
$ 17 53
$ 17 54
$ 17 56
$ 17 57
$ 17 58
$ 17 59
$ 18 19
$ 18 25
$ 18 27
$ 18 30
$ 18 32
$ 18 35
$ 18 37
$ 18 39
$ 18 41
$ 18 42
$ 18 44
$ 18 45
$ 18 46
$ 18 51
$ 18 52
$ 18 57
$ 18 58
$ 19 23
$ 19 25
$ 19 26
$ 19 28
$ 19 32
$ 19 33
$ 19 34
$ 19 35
$ 19 37
$ 19 38
$ 19 44
$ 19 47
$ 19 50
$ 19 51
$ 19 54
$ 19 57
$ 19 60
$ 20 22
$ 20 23
$ 20 25
$ 20 27
$ 20 29
$ 20 31
$ 20 32
$ 20 37
$ 20 38
$ 20 39
$ 20 40
$ 20 41
$ 20 46
$ 20 47
$ 20 49
$ 20 51
$ 20 52
$ 20 53
$ 20 54
$ 20 59
$ 20 60
$ 21 22
$ 21 25
$ 21 27
$ 21 29
$ 21 30
$ 21 32
$ 21 34
$ 21 37
$ 21 38
$ 21 39
$ 21 40
$ 21 41
$ 21 43
$ 21 45
$ 21 46
$ 21 49
$ 21 50
$ 21 52
$ 21 53
$ 21 56
$ 21 57
$ 21 60
$ 22 24
$ 22 26
$ 22 28
$ 22 31
$ 22 32
$ 22 35
$ 22 38
$ 22 39
$ 22 41
$ 22 42
$ 22 46
$ 22 50
$ 22 51
$ 22 52
$ 22 54
$ 22 55
$ 22 58
$ 23 25
$ 23 27
$ 23 29
$ 23 32
$ 23 35
$ 23 42
$ 23 44
$ 23 45
$ 23 49
$ 23 51
$ 23 53
$ 23 59
$ 23 60
$ 24 25
$ 24 26
$ 24 27
$ 24 34
$ 24 35
$ 24 37
$ 24 39
$ 24 40
$ 24 42
$ 24 43
$ 24 44
$ 24 46
$ 24 49
$ 24 50
$ 24 52
$ 24 53
$ 24 58
$ 24 59
$ 25 27
$ 25 28
$ 25 30
$ 25 31
$ 25 32
$ 25 33
$ 25 34
$ 25 35
$ 25 39
$ 25 40
$ 25 42
$ 25 46
$ 25 47
$ 25 48
$ 25 50
$ 25 53
$ 25 56
$ 25 57
$ 25 59
$ 25 60
$ 26 28
$ 26 29
$ 26 30
$ 26 32
$ 26 33
$ 26 34
$ 26 39
$ 26 40
$ 26 44
$ 26 47
$ 26 48
$ 26 49
$ 26 51
$ 26 53
$ 26 59
$ 27 28
$ 27 35
$ 27 36
$ 27 37
$ 27 40
$ 27 41
$ 27 43
$ 27 46
$ 27 47
$ 27 50
$ 27 51
$ 27 55
$ 27 56
$ 27 58
$ 27 59
$ 28 32
$ 28 33
$ 28 37
$ 28 39
$ 28 41
$ 28 42
$ 28 45
$ 28 48
$ 28 52
$ 28 54
$ 28 59
$ 29 31
$ 29 33
$ 29 34
$ 29 35
$ 29 36
$ 29 37
$ 29 38
$ 29 39
$ 29 42
$ 29 44
$ 29 46
$ 29 48
$ 29 49
$ 29 50
$ 29 53
$ 29 54
$ 29 58
$ 30 36
$ 30 38
$ 30 42
$ 30 44
$ 30 48
$ 30 52
$ 30 53
$ 30 57
$ 30 59
$ 31 33
$ 31 34
$ 31 37
$ 31 39
$ 31 43
$ 31 44
$ 31 46
$ 31 47
$ 31 51
$ 31 54
$ 31 58
$ 31 59
$ 32 34
$ 32 36
$ 32 37
$ 32 38
$ 32 41
$ 32 43
$ 32 44
$ 32 45
$ 32 47
$ 32 48
$ 32 50
$ 32 51
$ 32 52
$ 32 53
$ 32 54
$ 33 38
$ 33 42
$ 33 43
$ 33 45
$ 33 46
$ 33 49
$ 33 52
$ 33 54
$ 33 56
$ 33 58
$ 33 59
$ 34 36
$ 34 39
$ 34 46
$ 34 47
$ 34 49
$ 34 50
$ 34 52
$ 34 54
$ 34 58
$ 34 60
$ 35 36
$ 35 37
$ 35 39
$ 35 41
$ 35 42
$ 35 43
$ 35 44
$ 35 45
$ 35 47
$ 35 49
$ 35 51
$ 35 54
$ 35 55
$ 35 56
$ 35 57
$ 35 58
$ 36 38
$ 36 40
$ 36 44
$ 36 46
$ 36 47
$ 36 50
$ 36 51
$ 36 52
$ 36 53
$ 36 54
$ 36 57
$ 36 60
$ 37 38
$ 37 39
$ 37 41
$ 37 42
$ 37 44
$ 37 45
$ 37 47
$ 37 54
$ 37 55
$ 37 56
$ 37 57
$ 37 58
$ 37 60
$ 38 39
$ 38 41
$ 38 43
$ 38 44
$ 38 47
$ 38 48
$ 38 51
$ 38 52
$ 38 54
$ 38 55
$ 38 57
$ 39 40
$ 39 41
$ 39 43
$ 39 45
$ 39 46
$ 39 47
$ 39 49
$ 39 51
$ 39 56
$ 39 57
$ 40 43
$ 40 45
$ 40 55
$ 40 58
$ 41 42
$ 41 43
$ 41 44
$ 41 45
$ 41 47
$ 41 49
$ 41 50
$ 41 51
$ 41 54
$ 41 58
$ 41 59
$ 42 43
$ 42 46
$ 42 50
$ 42 51
$ 42 56
$ 42 57
$ 42 58
$ 42 59
$ 42 60
$ 43 45
$ 43 48
$ 43 49
$ 43 50
$ 43 55
$ 43 56
$ 43 57
$ 43 59
$ 43 60
$ 44 47
$ 44 48
$ 44 51
$ 44 52
$ 44 54
$ 44 57
$ 44 58
$ 44 60
$ 45 47
$ 45 48
$ 45 51
$ 45 52
$ 45 55
$ 45 56
$ 45 58
$ 45 60
$ 46 49
$ 46 51
$ 46 53
$ 47 48
$ 47 51
$ 47 58
$ 47 59
$ 48 50
$ 48 51
$ 48 52
$ 48 53
$ 48 54
$ 48 57
$ 48 59
$ 48 60
$ 49 50
$ 49 53
$ 49 54
$ 49 56
$ 49 60
$ 50 53
$ 50 54
$ 50 55
$ 50 60
$ 51 52
$ 51 55
$ 51 56
$ 51 58
$ 51 59
$ 51 60
$ 52 56
$ 52 57
$ 52 59
$ 52 60
$ 53 54
$ 53 56
$ 53 58
$ 53 59
$ 54 56
$ 54 59
$ 54 60
$ 55 56
$ 55 57
$ 55 59
$ 55 60
$ 56 57
$ 56 60
$ 57 58
$ 57 60

letting fin1 be 854
